GLPSOL--GLPK LP/MIP Solver 5.0
Parameter(s) specified in the command line:
 --lp ../modeles/10_64.lp --log 10_64.log
Reading problem data from '../modeles/10_64.lp'...
681 rows, 1300 columns, 4510 non-zeros
640 integer variables, all of which are binary
1997 lines were read
GLPK Integer Optimizer 5.0
681 rows, 1300 columns, 4510 non-zeros
640 integer variables, all of which are binary
Preprocessing...
620 constraint coefficient(s) were reduced
681 rows, 1290 columns, 4500 non-zeros
640 integer variables, all of which are binary
Scaling...
 A: min|aij| =  3.906e-03  max|aij| =  4.000e+00  ratio =  1.024e+03
GM: min|aij| =  1.768e-01  max|aij| =  5.657e+00  ratio =  3.200e+01
EQ: min|aij| =  3.125e-02  max|aij| =  1.000e+00  ratio =  3.200e+01
2N: min|aij| =  3.125e-02  max|aij| =  1.638e+00  ratio =  5.243e+01
Constructing initial basis...
Size of triangular part is 681
Solving LP relaxation...
GLPK Simplex Optimizer 5.0
681 rows, 1290 columns, 4500 non-zeros
      0: obj =   2.000000000e+01 inf =   4.950e+01 (21)
    109: obj =  -4.640234949e-01 inf =   0.000e+00 (0)
*   307: obj =  -3.159090909e+00 inf =   7.919e-15 (0)
OPTIMAL LP SOLUTION FOUND
Integer optimization begins...
Long-step dual simplex will be used
+   307: mip =     not found yet >=              -inf        (1; 0)
+   408: >>>>>  -3.159090909e+00 >=  -3.159090909e+00 < 0.1% (100; 0)
+   408: mip =  -3.159090909e+00 >=     tree is empty   0.0% (0; 199)
INTEGER OPTIMAL SOLUTION FOUND
Time used:   0.1 secs
Memory used: 2.0 Mb (2097674 bytes)
